problems/csplib-prob110/ArmiesOfQueens-models/noch/O2/lingeling/model_1_1-04-solution000001.eprime-solution
language ESSENCE' 1.0

letting black_ExplicitVarSizeWithMarker_Marker be 2
letting black_ExplicitVarSizeWithMarker_Values_1 be [3, 4, 1, 1, 1, 1, 1, 1, 1, 1, 1, 1, 1, 1, 1, 1; int(1..16)]
letting black_ExplicitVarSizeWithMarker_Values_2 be [1, 2, 1, 1, 1, 1, 1, 1, 1, 1, 1, 1, 1, 1, 1, 1; int(1..16)]
letting white_ExplicitVarSizeWithMarker_Marker be 2
letting white_ExplicitVarSizeWithMarker_Values_1 be [1, 2, 1, 1, 1, 1, 1, 1, 1, 1, 1, 1, 1, 1, 1, 1; int(1..16)]
letting white_ExplicitVarSizeWithMarker_Values_2 be [4, 3, 1, 1, 1, 1, 1, 1, 1, 1, 1, 1, 1, 1, 1, 1; int(1..16)]
