problems/csplib-prob110/ArmiesOfQueens-models/noch/O2/lingeling/model_1_1-04-solution000001.solution
language Essence 1.3

letting black be {(3, 1), (4, 2)}
$ Here is a simple "visualisation" for the value above.
$ 3 1
$ 4 2

letting white be {(1, 4), (2, 3)}
$ Here is a simple "visualisation" for the value above.
$ 1 4
$ 2 3

